FILENAME:   /home/mcs001/s132664/testsets/IP/miplib2017/neos-4382714-ruvuma.mps.gz
SETTINGS:   settings_final_nopeek_norelabel_extend_norestarts
TIMELIMIT:  7200
OUTPUTNAME: final_miplib_symretope_if_extended_generating_set_cpx_v802__settings_final_nopeek_norelabel_extend_norestarts__4__
BINNAME:    bin/sbcs.linux.x86_64.gnu.opt.cpx
BASENAME:   neos-4382714-ruvuma.mps.gz
SEED:       4
@01 /home/mcs001/s132664/testsets/IP/miplib2017/neos-4382714-ruvuma.mps.gz ===========
@02 neos-4382714-ruvuma.mps.gz
@03 1686666741
SCIP version 8.0.2 [precision: 8 byte] [memory: block] [mode: optimized] [LP solver: CPLEX 20.1.0.0] [GitHash: 5f0473c]
Copyright (C) 2002-2022 Konrad-Zuse-Zentrum fuer Informationstechnik Berlin (ZIB)

Symretope propagation methods - (c) Jasper van Doornmalen, Christopher Hojny.
[GitHash: 2fd0484]

reading parameter file <../settings/settings_final_nopeek_norelabel_extend_norestarts.set> ...

Changed settings:
limits/time = 7200
limits/restarts = 0
misc/usesymmetry = 1
randomization/randomseedshift = 4
constraints/orbisack/sepafreq = -1
constraints/symresack/sepafreq = -1
propagating/symmetry/addsymresacks = TRUE
propagating/symmetry/detectsubgroups = FALSE
propagating/symmetry/relabelsymretopes = 0
propagating/symmetry/extendgenerators = TRUE
propagating/symmetry/ofsymcomptiming = 0
constraints/symretope/sepafreq = -1
constraints/symretope/peek = FALSE


solving problem ...

original problem has 6562 variables (6561 bin, 0 int, 0 impl, 1 cont) and 3645 constraints
presolving:
(round 1, exhaustive) 1 del vars, 0 del conss, 0 add conss, 0 chg bounds, 0 chg sides, 0 chg coeffs, 3645 upgd conss, 0 impls, 3645 clqs
   (0.2s) probing: 51/6561 (0.8%) - 0 fixings, 0 aggregations, 0 implications, 0 bound changes
   (0.2s) probing aborted: 50/50 successive totally useless probings
   (0.2s) symmetry computation started: requiring (bin +, int +, cont +), (fixed: bin -, int -, cont -)
   (0.4s) symmetry computation finished: 19 generators found (max: 1500, log10 of symmetry group size: 17.9)
(round 2, exhaustive) 17 del vars, 0 del conss, 171 add conss, 0 chg bounds, 0 chg sides, 0 chg coeffs, 3645 upgd conss, 0 impls, 3645 clqs
   (1.1s) probing: 213/6561 (3.2%) - 10 fixings, 0 aggregations, 13 implications, 0 bound changes
   (1.1s) probing aborted: 50/50 successive totally useless probings
(round 3, exhaustive) 32 del vars, 0 del conss, 171 add conss, 0 chg bounds, 0 chg sides, 0 chg coeffs, 3645 upgd conss, 0 impls, 3658 clqs
   (1.1s) probing: 218/6561 (3.3%) - 10 fixings, 0 aggregations, 13 implications, 0 bound changes
   (1.1s) probing aborted: 50/50 successive totally useless probings
presolving (4 rounds: 4 fast, 4 medium, 4 exhaustive):
 32 deleted vars, 0 deleted constraints, 171 added constraints, 0 tightened bounds, 0 added holes, 0 changed sides, 0 changed coefficients
 0 implications, 3658 cliques
presolved problem has 6530 variables (6530 bin, 0 int, 0 impl, 0 cont) and 3816 constraints
   3645 constraints of type <setppc>
     69 constraints of type <orbisack>
     24 constraints of type <orbitope>
     78 constraints of type <symretope>
transformed objective value is always integral (scale: 1)
Presolving Time: 1.23

 time | node  | left  |LP iter|LP it/n|mem/heur|mdpt |vars |cons |rows |cuts |sepa|confs|strbr|  dualbound   | primalbound  |  gap   | compl. 
 12.3s|     1 |     0 | 19407 |     - |   333M |   0 |6530 |3888 |5171 |   0 |  0 |  74 |   0 | 0.000000e+00 |      --      |    Inf | unknown
 88.2s|     1 |     0 | 98398 |     - |   348M |   0 |6530 |4087 |5053 |   3 |  1 |  75 |   0 | 0.000000e+00 |      --      |    Inf | unknown
 89.4s|     1 |     0 | 98569 |     - |   351M |   0 |6530 |4083 |5035 |   4 |  2 |  76 |   0 | 0.000000e+00 |      --      |    Inf | unknown
 90.7s|     1 |     0 | 98713 |     - |   354M |   0 |6530 |4086 |5038 |   7 |  4 |  79 |   0 | 0.000000e+00 |      --      |    Inf | unknown
  123s|     1 |     0 |138401 |     - |   355M |   0 |6530 |4086 |5042 |  11 |  5 |  80 |   0 | 0.000000e+00 |      --      |    Inf | unknown
  141s|     1 |     0 |158961 |     - |   356M |   0 |6530 |4086 |5046 |  15 |  6 |  81 |   0 | 0.000000e+00 |      --      |    Inf | unknown
  158s|     1 |     0 |179298 |     - |   356M |   0 |6530 |4087 |5034 |  25 |  7 |  82 |   0 | 0.000000e+00 |      --      |    Inf | unknown
  174s|     1 |     0 |198482 |     - |   357M |   0 |6530 |4078 |5034 |  25 |  9 |  87 |   0 | 0.000000e+00 |      --      |    Inf | unknown
  191s|     1 |     0 |218584 |     - |   357M |   0 |6530 |4078 |5036 |  27 | 11 |  88 |   0 | 0.000000e+00 |      --      |    Inf | unknown
  192s|     1 |     0 |218866 |     - |   357M |   0 |6530 |4081 |5039 |  30 | 13 |  91 |   0 | 0.000000e+00 |      --      |    Inf | unknown
  194s|     1 |     0 |219154 |     - |   358M |   0 |6530 |4082 |5042 |  33 | 14 |  92 |   0 | 0.000000e+00 |      --      |    Inf | unknown
  212s|     1 |     0 |235361 |     - |   358M |   0 |6530 |4083 |3668 |  33 | 16 |  94 |   5 | 0.000000e+00 |      --      |    Inf | unknown
  227s|     1 |     2 |235361 |     - |   360M |   0 |6530 |4084 |3668 |  33 | 18 |  95 |  16 | 0.000000e+00 |      --      |    Inf | unknown
 2111s|   100 |   101 |  2373k|21763.5 |   363M |   9 |6530 |4216 |3646 |  33 |  1 | 231 |  16 | 0.000000e+00 |      --      |    Inf | unknown
 3596s|   200 |   201 |  4423k|21128.3 |   372M |  16 |6530 |4387 |3646 |  60 |  1 | 414 |  16 | 0.000000e+00 |      --      |    Inf | unknown
 time | node  | left  |LP iter|LP it/n|mem/heur|mdpt |vars |cons |rows |cuts |sepa|confs|strbr|  dualbound   | primalbound  |  gap   | compl. 
 5344s|   300 |   301 |  6986k|22632.2 |   378M |  16 |6530 |4744 |3646 | 122 |  1 | 784 |  16 | 0.000000e+00 |      --      |    Inf | unknown
 6894s|   400 |   401 |  9440k|23111.7 |   381M |  16 |6530 |5133 |3646 | 161 |  1 |1207 |  16 | 0.000000e+00 |      --      |    Inf | unknown

SCIP Status        : solving was interrupted [time limit reached]
Solving Time (sec) : 7200.01
Solving Nodes      : 419
Primal Bound       : +1.00000000000000e+20 (0 solutions)
Dual Bound         : +0.00000000000000e+00
Gap                : infinite
SCIP Status        : solving was interrupted [time limit reached]
Total Time         :    7200.05
  solving          :    7200.01
  presolving       :       1.23 (included in solving)
  reading          :       0.04
  copying          :       0.59 (32 #copies) (minimal 0.02, maximal 0.02, average 0.02)
Original Problem   :
  Problem name     : neos-4382714-ruvuma
  Variables        : 6562 (6561 binary, 0 integer, 0 implicit integer, 1 continuous)
  Constraints      : 3645 initial, 3645 maximal
  Objective        : minimize, 1 non-zeros (abs.min = 1, abs.max = 1)
Presolved Problem  :
  Problem name     : t_neos-4382714-ruvuma
  Variables        : 6530 (6530 binary, 0 integer, 0 implicit integer, 0 continuous)
  Constraints      : 3816 initial, 5184 maximal
  Objective        : minimize, 0 non-zeros (abs.min = 1e+20, abs.max = -1e+20)
  Nonzeros         : 775123 constraint, 32073 clique table
Presolvers         :   ExecTime  SetupTime  Calls  FixedVars   AggrVars   ChgTypes  ChgBounds   AddHoles    DelCons    AddCons   ChgSides   ChgCoefs
  boundshift       :       0.00       0.00      0          0          0          0          0          0          0          0          0          0
  convertinttobin  :       0.00       0.00      0          0          0          0          0          0          0          0          0          0
  domcol           :       0.01       0.00      3          0          0          0          0          0          0          0          0          0
  dualagg          :       0.00       0.00      0          0          0          0          0          0          0          0          0          0
  dualcomp         :       0.00       0.00      0          0          0          0          0          0          0          0          0          0
  dualinfer        :       0.00       0.00      0          0          0          0          0          0          0          0          0          0
  dualsparsify     :       0.01       0.00      1          0          0          0          0          0          0          0          0          0
  gateextraction   :       0.00       0.00      0          0          0          0          0          0          0          0          0          0
  implics          :       0.00       0.00      4          0          0          0          0          0          0          0          0          0
  inttobinary      :       0.00       0.00      0          0          0          0          0          0          0          0          0          0
  qpkktref         :       0.00       0.00      0          0          0          0          0          0          0          0          0          0
  redvub           :       0.00       0.00      0          0          0          0          0          0          0          0          0          0
  sparsify         :       0.05       0.00      1          0          0          0          0          0          0          0          0          0
  stuffing         :       0.00       0.00      0          0          0          0          0          0          0          0          0          0
  trivial          :       0.00       0.00      4          1          0          0          0          0          0          0          0          0
  tworowbnd        :       0.00       0.00      0          0          0          0          0          0          0          0          0          0
  dualfix          :       0.00       0.00      4          0          0          0          0          0          0          0          0          0
  genvbounds       :       0.00       0.00      0          0          0          0          0          0          0          0          0          0
  probing          :       0.45       0.00      3         10          0          0          0          0          0          0          0          0
  pseudoobj        :       0.00       0.00      0          0          0          0          0          0          0          0          0          0
  symmetry         :       0.48       0.00      1         16          0          0          0          0          0        171          0          0
  vbounds          :       0.01       0.00      1          0          0          0          0          0          0          0          0          0
  knapsack         :       0.00       0.00      0          0          0          0          0          0          0          0          0          0
  setppc           :       0.02       0.00      9          0          0          0          0          0          0          0          0          0
  linear           :       0.03       0.01      2          0          0          0          0          0          0          0          0          0
  orbisack         :       0.00       0.00      2          0          0          0          0          0          0          0          0          0
  orbitope         :       0.00       0.00      2          5          0          0          0          0          0          0          0          0
  symretope        :       0.00       0.00      2          0          0          0          0          0          0          0          0          0
  logicor          :       0.00       0.00      0          0          0          0          0          0          0          0          0          0
  benders          :       0.00       0.00      0          0          0          0          0          0          0          0          0          0
  components       :       0.15       0.00      1          0          0          0          0          0          0          0          0          0
  root node        :          -          -      -        116          -          -        116          -          -          -          -          -
Constraints        :     Number  MaxNumber  #Separate #Propagate    #EnfoLP    #EnfoRelax  #EnfoPS    #Check   #ResProp    Cutoffs    DomReds       Cuts    Applied      Conss   Children
  benderslp        :          0          0          0          0        420          0          0          8          0          0          0          0          0          0          0
  integral         :          0          0          0          0        420          0          0          8          0          0          1          0          0          0        838
  knapsack         :          0+        10          0      22371          0          0          0          0         25          4          0          0          0          0          0
  setppc           :       3645+      3650         13      40865          0          0          0          3      45547        172      15268          4          0          0          0
  linear           :          0+       207         12      38956          0          0          0          0         44          1          0          0          0          0          0
  orbisack         :         69         69          0         28          0          0          0          0          5          1          0          0          0          0          0
  orbitope         :         24         24          0      40591          0          0          0          0        620          5        306          0          0          0          0
  symretope        :         78         78          0       4076          0          0          0          0        133         27         12          0          0          0          0
  logicor          :          0+      1175         13       5672          0          0          0          0        459         13         42          6          3          0          0
  benders          :          0          0          0          0          0          0          0          0          0          0          0          0          0          0          0
  countsols        :          0          0          0          0          0          0          0          0          0          0          0          0          0          0          0
  components       :          0          0          0          0          0          0          0          0          0          0          0          0          0          0          0
Constraint Timings :  TotalTime  SetupTime   Separate  Propagate     EnfoLP     EnfoPS     EnfoRelax   Check    ResProp    SB-Prop
  benderslp        :       0.00       0.00       0.00       0.00       0.00       0.00       0.00       0.00       0.00       0.00
  integral         :      18.39       0.00       0.00       0.00      18.39       0.00       0.00       0.00       0.00       0.00
  knapsack         :       0.03       0.00       0.00       0.03       0.00       0.00       0.00       0.00       0.00       0.00
  setppc           :       1.68       0.00       0.01       1.64       0.00       0.00       0.00       0.00       0.03       0.00
  linear           :       0.08       0.01       0.01       0.07       0.00       0.00       0.00       0.00       0.00       0.00
  orbisack         :       0.09       0.00       0.00       0.09       0.00       0.00       0.00       0.00       0.00       0.00
  orbitope         :      10.81       0.00       0.00      10.73       0.00       0.00       0.00       0.00       0.05       0.02
  symretope        :       0.79       0.00       0.00       0.79       0.00       0.00       0.00       0.00       0.00       0.00
  logicor          :       0.05       0.00       0.00       0.05       0.00       0.00       0.00       0.00       0.00       0.00
  benders          :       0.00       0.00       0.00       0.00       0.00       0.00       0.00       0.00       0.00       0.00
  countsols        :       0.00       0.00       0.00       0.00       0.00       0.00       0.00       0.00       0.00       0.00
  components       :       0.00       0.00       0.00       0.00       0.00       0.00       0.00       0.00       0.00       0.00
Propagators        : #Propagate   #ResProp    Cutoffs    DomReds
  dualfix          :          5          0          0          0
  genvbounds       :          0          0          0          0
  nlobbt           :          0          0          0          0
  obbt             :          0          0          0          0
  probing          :          0          0          0          0
  pseudoobj        :          0          0          0          0
  redcost          :          0          0          0          0
  rootredcost      :          0          0          0          0
  symmetry         :          0          0          0          0
  vbounds          :       9384          0          0          0
Propagator Timings :  TotalTime  SetupTime   Presolve  Propagate    ResProp    SB-Prop
  dualfix          :       0.00       0.00       0.00       0.00       0.00       0.00
  genvbounds       :       0.01       0.00       0.00       0.01       0.00       0.00
  nlobbt           :       0.00       0.00       0.00       0.00       0.00       0.00
  obbt             :       0.00       0.00       0.00       0.00       0.00       0.00
  probing          :       0.45       0.00       0.45       0.00       0.00       0.00
  pseudoobj        :       0.00       0.00       0.00       0.00       0.00       0.00
  redcost          :       0.00       0.00       0.00       0.00       0.00       0.00
  rootredcost      :       0.00       0.00       0.00       0.00       0.00       0.00
  symmetry         :       0.48       0.00       0.48       0.00       0.00       0.00
  vbounds          :       0.05       0.00       0.01       0.04       0.00       0.00
Orbital fixing     :
  vars fixed to 0  :          0
  vars fixed to 1  :          0
Conflict Analysis  :       Time      Calls    Success    DomReds  Conflicts   Literals    Reconvs ReconvLits   Dualrays   Nonzeros   LP Iters   (pool size: [10000,10000])
  propagation      :       0.15        211        201          -       3631      215.5         69       14.1          -          -          -
  infeasible LP    :       0.12         20         20          -       1109      478.1          7       11.3         16      478.2          0
  bound exceed. LP :       0.00          0          0          -          0        0.0          0        0.0          0        0.0          0
  strong branching :       0.00          0          0          -          0        0.0          0        0.0          -          -          0
  pseudo solution  :       0.00          0          0          -          0        0.0          0        0.0          -          -          -
  applied globally :       0.04          -          -          0       1249       84.2          -          -         16          -          -
  applied locally  :          -          -          -          0          0        0.0          -          -          0          -          -
Separators         :   ExecTime  SetupTime      Calls  RootCalls    Cutoffs    DomReds  FoundCuts ViaPoolAdd  DirectAdd    Applied ViaPoolApp  DirectApp      Conss
  cut pool         :       0.00          -        137         24          -          -         88         51          -          -          -          -          -    (maximal pool size:         77)
  aggregation      :       0.17       0.00         87         12          0          0          0          0          0          0          0          0          0
  > cmir           :          -          -          -          -          -          -          -          0          0          0          0          0          -
  > flowcover      :          -          -          -          -          -          -          -          0          0          0          0          0          -
  > knapsackcover  :          -          -          -          -          -          -          -          0          0          0          0          0          -
  cgmip            :       0.00       0.00          0          0          0          0          0          0          0          0          0          0          0
  clique           :       0.84       0.00         12         12          0          0          5          3          0          2          2          0          0
  closecuts        :       0.00       0.00          0          0          0          0          0          0          0          0          0          0          0
  convexproj       :       0.00       0.00          0          0          0          0          0          0          0          0          0          0          0
  disjunctive      :       0.00       0.00          0          0          0          0          0          0          0          0          0          0          0
  eccuts           :       0.00       0.00          0          0          0          0          0          0          0          0          0          0          0
  gauge            :       0.00       0.00          0          0          0          0          0          0          0          0          0          0          0
  gomory           :      29.17       0.00         85         10          0          0          9          1          8          8          1          7          0
  > gomorymi       :          -          -          -          -          -          -          -          0          4          4          0          4          -
  > strongcg       :          -          -          -          -          -          -          -          1          4          4          1          3          -
  impliedbounds    :       0.03       0.00         87         12          0         29          7         12          0         12         12          0          0
  interminor       :       0.00       0.00          0          0          0          0          0          0          0          0          0          0          0
  intobj           :       0.00       0.00          0          0          0          0          0          0          0          0          0          0          0
  mcf              :       0.01       0.00          1          1          0          0          0          0          0          0          0          0          0
  minor            :       0.00       0.00          0          0          0          0          0          0          0          0          0          0          0
  mixing           :       0.00       0.00          0          0          0          0          0          0          0          0          0          0          0
  oddcycle         :       0.00       0.00          0          0          0          0          0          0          0          0          0          0          0
  rapidlearning    :      82.38       0.00         30          1          0        147          0          0          0          0          0          0        490
  rlt              :       0.00       0.00         10         10          0          0          0          0          0          0          0          0          0
  zerohalf         :      28.40       0.00         87         12          0          0        195         35        120        153         33        120          0
Cutselectors       :   ExecTime  SetupTime      Calls  RootCalls   Selected     Forced   Filtered  RootSelec   RootForc   RootFilt 
  hybrid           :       0.00       0.00         78          9        171          8         18         25          8         17
Pricers            :   ExecTime  SetupTime      Calls       Vars
  problem variables:       0.00          -          0          0
Branching Rules    :   ExecTime  SetupTime   BranchLP  BranchExt   BranchPS    Cutoffs    DomReds       Cuts      Conss   Children
  allfullstrong    :       0.00       0.00          0          0          0          0          0          0          0          0
  cloud            :       0.00       0.00          0          0          0          0          0          0          0          0
  distribution     :       0.00       0.00          0          0          0          0          0          0          0          0
  fullstrong       :       0.00       0.00          0          0          0          0          0          0          0          0
  inference        :       0.00       0.00          0          0          0          0          0          0          0          0
  leastinf         :       0.00       0.00          0          0          0          0          0          0          0          0
  lookahead        :       0.00       0.00          0          0          0          0          0          0          0          0
  mostinf          :       0.00       0.00          0          0          0          0          0          0          0          0
  multaggr         :       0.00       0.00          0          0          0          0          0          0          0          0
  nodereopt        :       0.00       0.00          0          0          0          0          0          0          0          0
  pscost           :       0.00       0.00          0          0          0          0          0          0          0          0
  random           :       0.00       0.00          0          0          0          0          0          0          0          0
  relpscost        :      18.39       0.00        420          0          0          0          1          0          0        838
  vanillafullstrong:       0.00       0.00          0          0          0          0          0          0          0          0
Primal Heuristics  :   ExecTime  SetupTime      Calls      Found       Best
  LP solutions     :       0.00          -          -          0          0
  relax solutions  :       0.00          -          -          0          0
  pseudo solutions :       0.00          -          -          0          0
  strong branching :       0.00          -          -          0          0
  actconsdiving    :       0.00       0.00          0          0          0
  adaptivediving   :      79.13       0.00          9          0          0
  alns             :       0.05       0.00          1          0          0
  bound            :       0.00       0.00          0          0          0
  clique           :       0.10       0.00          1          0          0
  coefdiving       :       0.00       0.00          0          0          0
  completesol      :       0.00       0.00          0          0          0
  conflictdiving   :     610.44       0.00         40          0          0
  crossover        :       0.00       0.00          0          0          0
  dins             :       0.00       0.00          0          0          0
  distributiondivin:      90.46       0.00          6          0          0
  dps              :       0.00       0.00          0          0          0
  dualval          :       0.00       0.00          0          0          0
  farkasdiving     :       0.00       0.00          0          0          0
  feaspump         :      39.78       0.00          1          0          0
  fixandinfer      :       0.00       0.00          0          0          0
  fracdiving       :      82.79       0.00          7          0          0
  gins             :       0.00       0.00          0          0          0
  guideddiving     :       0.00       0.00          0          0          0
  indicator        :       0.00       0.00          0          0          0
  intdiving        :       0.00       0.00          0          0          0
  intshifting      :       0.00       0.00          0          0          0
  linesearchdiving :     321.46       0.00         26          0          0
  localbranching   :       0.00       0.00          0          0          0
  locks            :       0.10       0.00          1          0          0
  lpface           :       0.00       0.00          0          0          0
  mpec             :       0.00       0.00          0          0          0
  multistart       :       0.00       0.00          0          0          0
  mutation         :       0.00       0.00          0          0          0
  nlpdiving        :       0.00       0.00          0          0          0
  objpscostdiving  :     330.21       0.00          4          0          0
  octane           :       0.00       0.00          0          0          0
  ofins            :       0.00       0.00          0          0          0
  oneopt           :       0.00       0.00          0          0          0
  padm             :       0.00       0.00          0          0          0
  proximity        :       0.00       0.00          0          0          0
  pscostdiving     :      80.48       0.00          5          0          0
  randrounding     :      47.26       0.00         12          0          0
  rens             :       0.80       0.00          1          0          0
  reoptsols        :       0.00       0.00          0          0          0
  repair           :       0.00       0.00          0          0          0
  rins             :       0.00       0.00          0          0          0
  rootsoldiving    :     135.99       0.00          4          0          0
  rounding         :       0.94       0.00        274          0          0
  shiftandpropagate:       0.13       0.00          1          0          0
  shifting         :       0.69       0.00        100          0          0
  simplerounding   :       0.00       0.00          0          0          0
  subnlp           :       0.00       0.00          0          0          0
  trivial          :       0.01       0.00          2          0          0
  trivialnegation  :       0.00       0.00          0          0          0
  trustregion      :       0.00       0.00          0          0          0
  trysol           :       0.00       0.00          0          0          0
  twoopt           :       0.00       0.00          0          0          0
  undercover       :       0.00       0.00          0          0          0
  vbounds          :       0.15       0.00          1          0          0
  veclendiving     :     126.57       0.00          8          0          0
  zeroobj          :       0.00       0.00          0          0          0
  zirounding       :       0.31       0.00        418          0          0
  other solutions  :          -          -          -          0          -
LP                 :       Time      Calls Iterations  Iter/call   Iter/sec  Time-0-It Calls-0-It    ItLimit
  primal LP        :      21.49         31          0       0.00       0.00      21.49         31
  dual LP          :    5067.98        526    7389996   14321.70    1458.17       0.35         10
  lex dual LP      :       0.00          0          0       0.00          -
  barrier LP       :       0.00          0          0       0.00          -       0.00          0
  resolve instable :       0.00          0          0       0.00          -
  diving/probing LP:    1921.74       1061    2524119    2379.00    1313.46
  strong branching :      17.49         16      11135     695.94     636.55          -          -         19
    (at root node) :          -         16      11135     695.94          -
  conflict analysis:       0.00          0          0       0.00          -
B&B Tree           :
  number of runs   :          1
  nodes            :        419 (419 internal, 0 leaves)
  feasible leaves  :          0
  infeas. leaves   :          0
  objective leaves :          0
  nodes (total)    :        419 (419 internal, 0 leaves)
  nodes left       :        420
  max depth        :         16
  max depth (total):         16
  backtracks       :        255 (60.9%)
  early backtracks :          0 (0.0%)
  nodes exc. ref.  :          0 (0.0%)
  delayed cutoffs  :          0
  repropagations   :        186 (24 domain reductions, 0 cutoffs)
  avg switch length:       6.89
  switching time   :      20.95
Root Node          :
  First LP value   : +0.00000000000000e+00
  First LP Iters   :      19407 (1843.09 Iter/sec)
  First LP Time    :      10.53
  Final Dual Bound : +0.00000000000000e+00
  Final Root Iters :     219296
  Root LP Estimate : +1.59338328424685e-01
Solution           :
  Solutions found  :          0 (0 improvements)
  Primal Bound     :          -
  Dual Bound       : +0.00000000000000e+00
  Gap              :   infinite
Integrals          :      Total       Avg%
  primal-dual      :  720001.21     100.00
  primal-ref       :          -          - (not evaluated)
  dual-ref         :          -          - (not evaluated)
written solution information to file <results/final_miplib_symretope_if_extended_generating_set_cpx_v802__settings_final_nopeek_norelabel_extend_norestarts__4__neos-4382714-ruvuma.mps.gz.sol>
@04 1686673941
